Methodenbank/Solver/LPSolve IDE/01 Programm/Testdir/jsteff.mps
*<meta creator='lp_solve v5.5'>
*<meta rows=66>
*<meta columns=79>
*<meta equalities=0>
*<meta integers=0>
*<meta origsense='MIN'>
*
NAME          LPSolver
ROWS
 N  R0      
 L  L0039C00
 L  L0041C01
 L  L0041C01
 L  L0041C01
 L  L0041C01
 L  L0041C01
 L  L0041C01
 L  L0041C01
 L  L0041C01
 L  L0043C01
 L  L0044C01
 L  L0045C01
 L  L0046C01
 L  L0047C01
 L  L0053C01
 L  L0054C00
 L  L0099C00
 L  L0099C00
 L  R19     
 L  R20     
 L  R21     
 L  L0103C02
 L  L0104C36
 L  L0104C36
 L  L0104C36
 L  L0104C36
 L  L0104C36
 L  L0104C36
 L  R29     
 L  R30     
 L  R31     
 L  R32     
 L  R33     
 L  L0104C36
 L  R35     
 L  R36     
 L  R37     
 L  L0104C36
 L  R39     
 L  L0104C36
 L  L0104C36
 L  L0104C36
 L  R43     
 L  L0104C36
 L  R45     
 L  R46     
 L  R47     
 L  R48     
 L  R49     
 L  R50     
 L  R51     
 L  R52     
 L  L0104C36
 L  L0106C01
 L  L0108C01
 L  R56     
 L  L0108C01
 L  L0108C01
 L  L0109C01
 L  L0110C01
 L  L0111C01
 L  L0113C00
 L  L0113C00
 L  R64     
 L  R65     
 L  R66     
COLUMNS
    p088      R0        -1.000000000   L0099C00  1.0000000000
    p089      R0        -1.000000000   R19       1.0000000000
    p090      R0        -1.000000000   R20       1.0000000000
    p091      R0        -1.000000000   R21       1.0000000000
    q092      R0        2.0000000000   L0104C36  -1.000000000
    q092      L0104C36  -1.000000000
    q093      R0        2.0000000000
    q094      R0        2.0000000000
    q095      R0        2.0000000000   L0104C36  -1.000000000
    q095      L0104C36  -1.000000000
    q096      R0        2.0000000000   L0104C36  -1.000000000
    q096      L0104C36  -1.000000000
    q097      R0        2.0000000000   L0104C36  -1.000000000
    q097      L0104C36  -1.000000000
    q098      R0        2.0000000000   L0104C36  -1.000000000
    q098      L0104C36  -1.000000000
    a099      R0        3.0000000000   L0099C00  -1.000000000
    o100      R0        -1.000000000   L0113C00  1.0000000000
    d023      L0039C00  -1.000000000   L0054C00  1.0000000000
    b006      L0039C00  1.0000000000   L0113C00  -1.000000000
    m011      L0041C01  -1.000000000   L0041C01  -1.000000000
    m011      L0041C01  1.0000000000
    m007      L0041C01  1.0000000000   L0041C01  1.0000000000
    m007      L0041C01  1.0000000000   L0041C01  1.0000000000
    x008      L0041C01  1.0000000000   L0041C01  1.0000000000
    x008      L0041C01  1.0000000000   L0041C01  -1.000000000
    x004      L0041C01  -1.000000000   L0041C01  -1.000000000
    x004      L0108C01  1.0000000000
    x009      L0041C01  1.0000000000   L0043C01  -1.000000000
    x014      L0041C01  -1.000000000   L0041C01  1.0000000000
    m010      L0041C01  -1.000000000
    x013      L0041C01  -1.000000000   L0041C01  1.0000000000
    x013      L0041C01  -1.000000000
    x012      L0041C01  1.0000000000   L0041C01  -1.000000000
    z015      L0043C01  1.0000000000   L0044C01  -1.000000000
    z016      L0044C01  1.0000000000   L0045C01  -1.000000000
    z017      L0045C01  1.0000000000   L0046C01  -1.000000000
    z018      L0046C01  1.0000000000   L0047C01  -1.000000000
    z019      L0047C01  1.0000000000   R56       -1.000000000
    z021      L0053C01  -1.000000000   L0108C01  1.0000000000
    z022      L0053C01  1.0000000000   L0054C00  -1.000000000
    y005      L0054C00  1.0000000000   L0108C01  -1.000000000
    a101      L0099C00  1.0000000000   L0104C36  -1.000000000
    a101      L0104C36  -1.000000000
    d143      L0099C00  -1.000000000   R66       1.0000000000
    d144      R19       -1.000000000   R65       1.0000000000
    d145      R20       -1.000000000   R64       1.0000000000
    d146      R21       -1.000000000   L0113C00  1.0000000000
    m102      L0103C02  1.0000000000   L0104C36  1.0000000000
    m103      L0103C02  -1.000000000   L0104C36  1.0000000000
    m103      L0104C36  1.0000000000   L0104C36  1.0000000000
    m107      L0104C36  -1.000000000   L0104C36  -1.000000000
    m107      L0104C36  1.0000000000
    a104      L0104C36  1.0000000000   L0104C36  1.0000000000
    a104      L0104C36  1.0000000000   L0104C36  -1.000000000
    a105      L0104C36  1.0000000000   L0106C01  -1.000000000
    a133      L0104C36  -1.000000000   L0104C36  1.0000000000
    m106      L0104C36  -1.000000000
    a132      L0104C36  -1.000000000   L0104C36  1.0000000000
    a129      L0104C36  -1.000000000   R29       1.0000000000
    a131      L0104C36  1.0000000000   L0104C36  -1.000000000
    a128      R29       -1.000000000   L0104C36  1.0000000000
    a118      R30       -1.000000000   R49       1.0000000000
    a119      R30       1.0000000000   R35       -1.000000000
    a116      R31       -1.000000000   R50       1.0000000000
    a117      R31       1.0000000000   R49       -1.000000000
    a114      R32       -1.000000000   R51       1.0000000000
    a115      R32       1.0000000000   R50       -1.000000000
    a110      R33       -1.000000000   R52       1.0000000000
    a111      R33       1.0000000000   R37       -1.000000000
    a108      L0104C36  -1.000000000   L0104C36  1.0000000000
    a109      L0104C36  1.0000000000   R52       -1.000000000
    a120      R35       1.0000000000   L0104C36  -1.000000000
    a112      R36       -1.000000000   R37       1.0000000000
    a113      R36       1.0000000000   R51       -1.000000000
    a130      L0104C36  -1.000000000   R39       1.0000000000
    a123      R39       -1.000000000   L0104C36  1.0000000000
    a123      R48       -1.000000000
    a121      L0104C36  1.0000000000   R43       -1.000000000
    a122      L0104C36  -1.000000000   R43       1.0000000000
    a127      L0104C36  -1.000000000   R45       1.0000000000
    a126      R45       -1.000000000   R46       1.0000000000
    a125      R46       -1.000000000   R47       1.0000000000
    a124      R47       -1.000000000   R48       1.0000000000
    z134      L0106C01  1.0000000000   L0108C01  -1.000000000
    z020      L0108C01  -1.000000000   R56       1.0000000000
    e136      L0108C01  1.0000000000   L0108C01  -1.000000000
    z135      L0108C01  1.0000000000   L0109C01  -1.000000000
    z137      L0109C01  1.0000000000   L0110C01  -1.000000000
    z139      L0110C01  1.0000000000   L0111C01  -1.000000000
    z141      L0111C01  1.0000000000   L0113C00  -1.000000000
    d138      R64       -1.000000000
    d140      R65       -1.000000000
    d142      R66       -1.000000000
RHS
    RHS       L0041C01  -20.00000000   L0041C01  -36.00000000
    RHS       L0041C01  -10.00000000   L0043C01  -83.00000000
    RHS       L0044C01  -39.00000000   L0045C01  -91.00000000
    RHS       L0046C01  -91.00000000   L0047C01  -91.00000000
    RHS       L0053C01  -442.0000000   L0099C00  -581.0000000
    RHS       L0103C02  -72.00000000   L0104C36  -32.00000000
    RHS       L0104C36  -55.00000000   L0104C36  -32.00000000
    RHS       L0104C36  -394.0000000   L0104C36  -20.00000000
    RHS       L0104C36  -35.00000000   L0104C36  -36.00000000
    RHS       L0104C36  -10.00000000   L0106C01  -39.00000000
    RHS       L0108C01  -85.00000000   R56       -85.00000000
    RHS       L0108C01  -142.0000000   L0108C01  -169.0000000
    RHS       L0109C01  -25.00000000   L0110C01  -25.00000000
    RHS       L0111C01  -25.00000000   L0113C00  -286.0000000
BOUNDS
 UP BND       p088      1000000.0000
 UP BND       p089      1000000.0000
 UP BND       p090      1000000.0000
 UP BND       p091      1000000.0000
 UP BND       o100      1000000.0000
ENDATA
